objective value:                                   -4
t_n_11                                              1 	(obj:-1)
t_n_432                                             1 	(obj:-1)
t_n_737                                             1 	(obj:-1)
t_n_974                                             1 	(obj:-1)
